outputs/case_182.model.txt
violation_finance_business_management_44_4 = False
derivative_transaction_intended = False
internal_control_deficiency_improved = False
violation_article_145_2_applied = False
honesty_and_credit_observed = False
major_fraud_or_suspected_fraud = False
violation_article_147_applied = False
violation_finance_business_management_18_2 = True
financial_supervisor_exemption = False
derivative_transaction_not_intended_and_board_approved = True
accept_non_client_account = False
loan_or_mediation_with_client = False
internal_audit_staff_adequate = False
asset_disposal_procedure_defined = False
public_market_price_available = False
misappropriation_of_client_assets = False
accept_same_account_offsetting_trades = False
violation_finance_business_management_62_2 = False
violation_article_79 = False
self_dealing_with_client_orders = False
violation_finance_business_management_95 = False
other_violations_of_securities_laws_or_regulations = False
internal_control_not_executed = True
solicit_unapproved_securities_or_derivatives = False
not_submit_required_documents = False
use_client_account_for_trading = True
asset_limit_defined = False
penalty_imposed_according_to_article_66 = True
violation_article_152 = True
violation_article_14_3 = False
accept_trading_without_proper_contract = False
violation_finance_business_management_70 = False
violation_article_14_1_1 = False
joint_risk_sharing_with_client = False
annual_audit_plan_executed = False
minor_violation = False
other_special_review_needed = False
subsidiary_asset_procedure_supervised = False
operation_procedure_defined = False
speculation_using_insider_info = False
announcement_and_declaration_defined = False
violation_article_69_1 = False
violation_finance_business_management_102 = False
violation_finance_business_management_60_2 = False
internal_control_deficiency_reported = False
profit_guarantee_or_sharing = False
violation_article_14_1_3 = False
violation_finance_business_management_90 = False
agent_open_account_for_others = False
violation_article_165_2 = False
accept_trading_by_investment_advisor_system = False
promote_unapproved_securities = False
violation_article_147 = False
violation_article_144 = False
illegal_disclosure_of_client_info = False
internal_control_system_established = False
underwriting_personnel_get_undue_benefits = False
violation_finance_business_management_62_2_etc = False
subsidiary_asset_control_defined = False
other_important_matters_defined = False
penalty_for_violation_defined = False
violation_article_141 = False
violation_article_21_1_5 = False
violation_finance_business_management_93 = False
order_stop_business_within_one_year = True
internal_control_self_assessed = False
prohibited_behaviors = False
induce_trading_by_price_prediction = False
violation_article_61 = False
accept_trading_with_market_manipulation_intent = False
violation_article_144_applied = False
violation_article_61_applied = False
improvement_completed = True
non_compliance_documents = False
evaluation_procedure_defined = False
violation_of_law_or_regulation = True
transaction_amount_ntd = 350000000
order_dismiss_officer = True
annual_audit_plan_reported = False
penalty_type = False
obstruct_inspection = False
violation_article_141_applied = False
external_financial_report_false_or_violation = False
violation_article_159 = False
violation_article_145_2 = False
fraud_or_misleading_in_underwriting_or_trading = False
full_power_delegation_to_client = False
asset_scope_defined = False
transaction_amount_percentage_of_paid_in_capital = 60
refuse_inspection = False
use_others_or_relatives_name_for_trading = False
violation_article_58 = False
violation_article_165_1 = False
violation_finance_business_management_22_4 = False
accept_officer_agent_trading = False
not_follow_client_order_conditions = False
financial_report_obtained_before_transaction = False
accept_non_client_or_unappointed_agent = False
penalty_fine_violation_finance_business_management = True
internal_control_updated_within_deadline = False
internal_control_updated_after_change = False
penalty_type_warning = False
subsidiary_asset_procedure_supervision = False
penalty_type_other = False
penalty_type_license_revocation = False
penalty_fine_non_submission_or_obstruction = False
internal_control_established = False
penalty_type_dismiss_officer = False
derivative_transaction_procedure_exemption = True
honesty_and_credit_principle = False
penalty_imposed_by_authority = True
prohibited_behaviors_employees = False
asset_disposal_procedure_contents = False
penalty_fine_minor_exemption = True
stop_business_or_dismiss_order = True
asset_disposal_procedure_established = False
derivative_transaction_procedure_required = False
internal_control_violation_conditions = True
securities_acquisition_evaluation = False
penalty_fine_non_compliance_documents = False
penalty_fine_violation = True
violation_affecting_business = True
penalty_fine_internal_control_not_executed = True
penalty_type_suspension = False
penalty = False
business_operated_according_to_law_and_internal_control = False
internal_control_operated_according_to_law = False